/*Objective Function*/
max: 420L1 +420L2 +420L3 +360M1 +360M2 +360M3 +300S1 +300S2 +300S3;

/*Constraints*/
S1 + M1 + L1 <= 750;
S2 + M2 + L2 <= 900;
S3 + M3 + L3 <= 450;
20 S1 +15 M1 +12 L1 <= 13000;
20 S2 +15 M2 +12 L2 <= 12000;
20 S3 +15 M3 +12 L3 <= 5000;
S1 +S2 +S3 <= 900;
M1 +M2 +M3 <= 1200;
L1 +L2 +L3 <= 750;
S1/750 + M1/750 + L1/750 = S2/900 + M2/900 + L2/900;
S1/750 + M1/750 + L1/750 = S3/450 + M3/450 + L3/450;
